p cnf 132 460
61 67 0
59 76 0
54 60 0
56 83 0
38 43 45 62 0
35 73 0
51 70 0
18 41 74 77 0
48 94 0
71 80 99 0
44 57 0
10 26 124 0
33 34 0
30 47 0
28 29 55 0
22 23 53 0
20 37 39 42 0
13 14 16 17 0
46 68 79 0
12 25 36 0
9 64 0
5 7 32 81 0
82 84 0
63 85 0
86 87 0
24 90 91 0
21 92 129 0
15 19 40 75 78 0
49 69 95 0
96 98 0
27 100 101 0
6 8 103 109 0
-67 -112 0
-67 -104 0
-67 -106 0
-54 -67 0
-104 -112 0
-106 -112 0
-54 -112 0
-104 -106 0
-54 -104 0
-54 -106 0
-35 -45 0
-45 -70 0
-45 -107 0
-45 -108 0
-35 -70 0
-35 -107 0
-35 -108 0
-70 -107 0
-70 -108 0
-107 -108 0
-41 -94 0
-41 -44 0
-26 -41 0
-41 -110 0
-44 -94 0
-26 -94 0
-94 -110 0
-26 -44 0
-44 -110 0
-26 -110 0
-63 -111 0
-63 -114 0
-63 -86 0
-24 -63 0
-111 -114 0
-86 -111 0
-24 -111 0
-86 -114 0
-24 -114 0
-24 -86 0
-19 -69 0
-19 -100 0
-19 -58 0
-8 -19 0
-69 -100 0
-58 -69 0
-8 -69 0
-58 -100 0
-8 -100 0
-8 -58 0
-45 -67 0
-41 -67 0
-63 -67 0
-19 -67 0
-41 -45 0
-45 -63 0
-19 -45 0
-41 -63 0
-19 -41 0
-19 -63 0
-35 -112 0
-94 -112 0
-111 -112 0
-69 -112 0
-35 -94 0
-35 -111 0
-35 -69 0
-94 -111 0
-69 -94 0
-69 -111 0
-70 -104 0
-44 -104 0
-104 -114 0
-100 -104 0
-44 -70 0
-70 -114 0
-70 -100 0
-44 -114 0
-44 -100 0
-100 -114 0
-106 -107 0
-26 -106 0
-86 -106 0
-58 -106 0
-26 -107 0
-86 -107 0
-58 -107 0
-26 -86 0
-26 -58 0
-58 -86 0
-54 -108 0
-54 -110 0
-24 -54 0
-8 -54 0
-108 -110 0
-24 -108 0
-8 -108 0
-24 -110 0
-8 -110 0
-8 -24 0
-43 -73 0
-43 -115 0
-43 -116 0
-73 -115 0
-73 -116 0
-115 -116 0
-66 -113 0
-30 -66 0
-53 -66 0
-30 -113 0
-53 -113 0
-30 -53 0
-17 -68 0
-17 -72 0
-7 -17 0
-68 -72 0
-7 -68 0
-7 -72 0
-40 -95 0
-40 -96 0
-40 -109 0
-95 -96 0
-95 -109 0
-96 -109 0
-43 -66 0
-17 -43 0
-40 -43 0
-17 -66 0
-40 -66 0
-17 -40 0
-73 -113 0
-68 -73 0
-73 -95 0
-68 -113 0
-95 -113 0
-68 -95 0
-30 -115 0
-72 -115 0
-96 -115 0
-30 -72 0
-30 -96 0
-72 -96 0
-53 -116 0
-7 -116 0
-109 -116 0
-7 -53 0
-53 -109 0
-7 -109 0
-56 -62 0
-31 -56 0
-56 -88 0
-56 -89 0
-31 -62 0
-62 -88 0
-62 -89 0
-31 -88 0
-31 -89 0
-88 -89 0
-18 -117 0
-71 -117 0
-117 -124 0
-102 -117 0
-18 -71 0
-18 -124 0
-18 -102 0
-71 -124 0
-71 -102 0
-102 -124 0
-34 -118 0
-34 -47 0
-29 -34 0
-23 -34 0
-47 -118 0
-29 -118 0
-23 -118 0
-29 -47 0
-23 -47 0
-23 -29 0
-16 -42 0
-42 -97 0
-42 -64 0
-32 -42 0
-16 -97 0
-16 -64 0
-16 -32 0
-64 -97 0
-32 -97 0
-32 -64 0
-75 -92 0
-92 -98 0
-11 -92 0
-6 -92 0
-75 -98 0
-11 -75 0
-6 -75 0
-11 -98 0
-6 -98 0
-6 -11 0
-56 -117 0
-34 -56 0
-42 -56 0
-56 -92 0
-34 -117 0
-42 -117 0
-92 -117 0
-34 -42 0
-34 -92 0
-42 -92 0
-18 -62 0
-62 -118 0
-16 -62 0
-62 -75 0
-18 -118 0
-16 -18 0
-18 -75 0
-16 -118 0
-75 -118 0
-16 -75 0
-31 -71 0
-31 -47 0
-31 -97 0
-31 -98 0
-47 -71 0
-71 -97 0
-71 -98 0
-47 -97 0
-47 -98 0
-97 -98 0
-88 -124 0
-29 -88 0
-64 -88 0
-11 -88 0
-29 -124 0
-64 -124 0
-11 -124 0
-29 -64 0
-11 -29 0
-11 -64 0
-89 -102 0
-23 -89 0
-32 -89 0
-6 -89 0
-23 -102 0
-32 -102 0
-6 -102 0
-23 -32 0
-6 -23 0
-6 -32 0
-119 -121 0
-55 -119 0
-22 -119 0
-55 -121 0
-22 -121 0
-22 -55 0
-12 -79 0
-9 -79 0
-5 -79 0
-9 -12 0
-5 -12 0
-5 -9 0
-122 -123 0
-87 -122 0
-90 -122 0
-87 -123 0
-90 -123 0
-87 -90 0
-49 -101 0
-49 -125 0
-49 -103 0
-101 -125 0
-101 -103 0
-103 -125 0
-79 -119 0
-119 -122 0
-49 -119 0
-79 -122 0
-49 -79 0
-49 -122 0
-12 -121 0
-121 -123 0
-101 -121 0
-12 -123 0
-12 -101 0
-101 -123 0
-9 -55 0
-55 -87 0
-55 -125 0
-9 -87 0
-9 -125 0
-87 -125 0
-5 -22 0
-22 -90 0
-22 -103 0
-5 -90 0
-5 -103 0
-90 -103 0
-74 -93 0
-10 -93 0
-10 -74 0
-33 -126 0
-28 -33 0
-28 -126 0
-15 -21 0
-21 -127 0
-15 -127 0
-33 -93 0
-21 -93 0
-21 -33 0
-74 -126 0
-15 -74 0
-15 -126 0
-10 -28 0
-10 -127 0
-28 -127 0
-61 -128 0
-120 -128 0
-59 -128 0
-61 -120 0
-59 -61 0
-59 -120 0
-77 -130 0
-48 -130 0
-80 -130 0
-48 -77 0
-77 -80 0
-48 -80 0
-14 -20 0
-20 -46 0
-20 -131 0
-14 -46 0
-14 -131 0
-46 -131 0
-82 -85 0
-82 -132 0
-82 -105 0
-85 -132 0
-85 -105 0
-105 -132 0
-128 -130 0
-20 -128 0
-82 -128 0
-20 -130 0
-82 -130 0
-20 -82 0
-61 -77 0
-14 -61 0
-61 -85 0
-14 -77 0
-77 -85 0
-14 -85 0
-48 -120 0
-46 -120 0
-120 -132 0
-46 -48 0
-48 -132 0
-46 -132 0
-59 -80 0
-59 -131 0
-59 -105 0
-80 -131 0
-80 -105 0
-105 -131 0
-38 -83 0
-51 -83 0
-38 -51 0
-13 -39 0
-36 -39 0
-13 -36 0
-78 -129 0
-27 -129 0
-27 -78 0
-39 -83 0
-83 -129 0
-39 -129 0
-13 -38 0
-38 -78 0
-13 -78 0
-36 -51 0
-27 -51 0
-27 -36 0
-65 -76 0
-52 -65 0
-60 -65 0
-52 -76 0
-60 -76 0
-52 -60 0
-4 -99 0
-4 -57 0
-3 -4 0
-57 -99 0
-3 -99 0
-3 -57 0
-2 -37 0
-25 -37 0
-37 -81 0
-2 -25 0
-2 -81 0
-25 -81 0
-1 -84 0
-50 -84 0
-84 -91 0
-1 -50 0
-1 -91 0
-50 -91 0
-4 -65 0
-37 -65 0
-65 -84 0
-4 -37 0
-4 -84 0
-37 -84 0
-76 -99 0
-2 -76 0
-1 -76 0
-2 -99 0
-1 -99 0
-1 -2 0
-52 -57 0
-25 -52 0
-50 -52 0
-25 -57 0
-50 -57 0
-25 -50 0
-3 -60 0
-60 -81 0
-60 -91 0
-3 -81 0
-3 -91 0
-81 -91 0
